&CONTROL
calculation='scf'
disk_io='low'
prefix='pwscf'
pseudo_dir='./'
outdir='./tmp'
verbosity='high'
tprnfor=.true.
tstress=.true.
forc_conv_thr=1.0d-8
etot_conv_thr=1.0d-10
/

&SYSTEM
ibrav=0
nat=3,ntyp=2
occupations='smearing', smearing='gauss', degauss=1.0d-10
ecutwfc=80, ecutrho=800
/

&ELECTRONS
electron_maxstep=10000
conv_thr=1.0d-10
mixing_mode='plain'
mixing_beta=0.3d0
diagonalization='david'
/

&IONS
ion_dynamics='bfgs'
/

&CELL
press_conv_thr=0.1
/

ATOMIC_SPECIES
W  183.84 W.pz-spn-rrkjus_psl.1.0.0.UPF
Se 78.960 Se.pz-n-rrkjus_psl.0.2.UPF 

CELL_PARAMETERS angstrom
  3.326535345252830  -0.000004296765414  0.000000000000000
  -1.663271394032725  2.880861966652899  0.000000000000000
  0.000000000000000  0.000000000000000  19.053366518000001

ATOMIC_POSITIONS crystal
W  0.000000000000000  0.000000000000000  0.000000000000000  0 0 0
Se  0.333330005000000  0.666670024000000  0.088214384328335  0 0 1
Se  0.333330005000000  0.666670024000000  0.911785579464977  0 0 1

K_POINTS {automatic}
12 12 1 0 0 0
